NAME: eil76.tour
TYPE: TOUR
DIMENSION: 76
COMMENT: best tour cost = 612.66
TOUR_SECTION 

4
75
76
67
34
46
8
35
7
53
14
19
54
13
27
52
45
29
48
47
21
74
28
62
73
33
63
16
51
6
68
2
30
5
37
20
70
60
71
36
69
61
22
1
43
41
42
64
56
23
49
24
18
50
32
44
3
40
12
17
26
58
72
39
9
25
55
31
10
38
65
11
66
59
57
15
-4
